 &control
    calculation = 'scf'
    restart_mode='from_scratch',
    prefix='silicon',
    tstress = .true.
    tprnfor = .true.,
    pseudo_dir = '../../pseudoPotentials/',
    outdir='./out',
 /
 &system
    ibrav = 0
    nat = 16
    ntyp = 1,
    ecutwfc = 30.
 /
 &electrons
    conv_thr =  1.0d-10
 /
ATOMIC_SPECIES
 Si  28.086  Si.pz-vbc.UPF
ATOMIC_POSITIONS crystal
Si   0.0606473273288578   -0.189352672671142   0.0643526726711422
Si              -0.0625               0.1875              -0.0625
Si               0.5625              -0.1875               0.0625
Si               0.4375               0.1875              -0.0625
Si               0.0625               0.3125               0.0625
Si              -0.0625               0.6875              -0.0625
Si               0.5625               0.3125               0.0625
Si               0.4375               0.6875              -0.0625
Si               0.0625              -0.1875               0.5625
Si              -0.0625               0.1875               0.4375
Si               0.5625              -0.1875               0.5625
Si               0.4375               0.1875               0.4375
Si               0.0625               0.3125               0.5625
Si              -0.0625               0.6875               0.4375
Si               0.5625               0.3125               0.5625
Si               0.4375               0.6875               0.4375

CELL_PARAMETERS angstrom
     -5.397607551384                    0       5.397607551384
                   0       5.397607551384       5.397607551384
     -5.397607551384       5.397607551384                    0
K_POINTS automatic
3 3 3 0 0 0

